002 003 002 002 001 003 004 006 006 009 010 013 011 009 007 011 008 007 006 003 003 005 005 008 006 007 006 006 009 009 009
002 002 001 002 001 002 004 005 013 007 005 004 006 010 005 007 006 006 006 003 005 007 012 014 007 007 008 006 012 011 021
002 002 002 002 002 002 006 006 007 003 004 005 005 007 005 008 006 006 007 006 007 009 007 011 009 008 008 014 021 021 021
001 001 001 002 001 002 005 007 005 003 002 006 007 007 008 008 005 006 007 008 005 007 009 015 013 015 010 014 012 021 033
003 001 001 002 003 002 002 002 003 004 003 003 006 008 009 008 009 009 006 010 006 006 009 013 010 011 011 016 021 024 029
003 001 001 002 002 003 002 003 003 005 003 003 004 008 009 007 006 006 006 009 006 006 006 010 017 014 008 016 019 018 040
002 001 001 001 003 002 002 002 003 004 005 004 005 005 008 007 004 008 006 008 008 006 005 011 012 010 009 014 018 016 019
002 002 001 000 001 002 003 004 003 003 003 003 004 003 005 004 004 006 006 010 006 008 009 007 010 015 014 014 017 016 016
002 001 001 001 001 002 002 002 002 002 002 003 003 002 003 003 005 006 009 010 008 010 009 012 009 012 010 010 011 013 011
002 002 002 002 002 002 001 002 002 001 002 002 002 002 003 003 003 003 005 006 009 008 008 007 007 007 010 013 011 017 018
002 002 002 002 001 001 002 002 002 001 001 001 001 001 001 002 003 003 006 006 007 006 007 009 010 010 010 016 018 018 013
001 001 001 002 002 001 002 001 001 001 002 001 001 001 001 002 003 002 004 005 006 005 006 009 010 009 015 014 026 018 017
001 001 001 001 002 002 002 001 001 001 002 001 001 001 002 004 004 003 003 004 006 004 007 008 009 009 008 018 028 020 021
000 001 002 001 002 001 001 001 001 001 002 002 002 002 004 004 005 004 004 004 005 006 007 010 008 006 008 011 015 020 015
000 001 001 001 001 001 001 001 001 001 003 002 003 006 004 004 004 004 005 010 015 010 009 009 010 007 008 009 013 021 021
001 001 001 001 001 001 002 001 002 001 005 002 006 005 004 004 005 004 005 015 017 009 010 006 010 008 008 007 010 016 014
002 001 003 002 001 001 002 001 002 003 006 002 005 009 006 005 008 010 016 021 016 010 012 005 008 008 007 007 007 007 009
003 001 001 001 002 002 002 006 008 006 006 006 007 011 009 007 016 030 026 013 020 012 014 004 008 008 007 006 008 006 006
004 002 001 001 001 002 002 003 007 009 006 010 017 015 018 013 022 031 033 021 030 022 018 008 004 004 004 004 005 004 004
005 003 002 003 002 002 003 006 010 006 011 020 025 016 028 016 013 008 039 024 014 017 016 007 003 003 002 004 004 004 004
006 002 002 001 001 002 005 008 013 009 014 018 010 013 016 016 009 002 021 017 007 006 005 002 002 001 001 002 003 004 004
006 003 002 002 002 002 005 010 015 014 013 015 009 009 014 013 006 002 004 005 003 001 002 002 001 001 -99 -99 -99 -99 004
008 008 003 003 002 003 005 011 015 014 013 011 008 010 014 015 004 003 004 005 003 001 001 002 002 001 -99 -99 -99 -99 003
006 023 014 006 002 004 005 008 010 006 006 006 008 008 007 010 004 002 004 003 001 001 000 002 002 -99 -99 -99 -99 -99 001
009 031 017 005 004 005 006 005 009 005 007 011 011 012 008 009 004 002 002 001 001 000 000 002 002 -99 -99 -99 -99 -99 000
010 017 031 016 006 004 004 002 006 005 006 011 006 011 008 007 004 003 001 001 001 000 000 -99 -99 -99 -99 -99 -99 000 000
016 015 011 012 008 004 003 002 005 007 011 013 017 007 004 004 005 004 002 001 000 000 000 -99 -99 -99 -99 -99 -99 000 000
020 015 009 015 006 004 005 006 005 006 007 010 011 006 007 008 007 003 002 002 000 000 000 -99 -99 -99 -99 -99 -99 -99 000
015 016 009 010 005 004 007 010 007 004 004 006 010 008 037 017 011 005 004 003 001 000 -99 -99 -99 -99 003 -99 -99 -99 000
015 008 008 006 004 003 005 011 014 005 002 005 007 014 034 019 012 009 009 006 003 004 005 001 -99 004 003 002 000 -99 000
005 006 004 002 002 004 005 004 005 002 001 003 006 021 019 011 011 012 007 008 007 015 014 001 004 005 004 002 000 -99 000
001 002 001 001 001 003 003 003 002 001 001 002 002 009 008 004 007 013 008 018 028 065 012 002 007 006 005 003 001 003 000
000 000 001 001 001 001 002 002 001 001 001 001 001 005 003 005 013 012 009 011 025 085 017 009 012 010 006 004 003 002 001
001 000 001 000 000 001 001 001 001 000 001 000 001 003 002 017 026 012 023 028 036 081 042 018 039 026 021 009 007 003 005
001 001 001 001 000 000 000 000 000 000 001 000 000 001 002 020 032 017 029 035 033 089 069 039 060 058 037 039 015 005 013
003 001 001 001 002 001 000 000 000 001 001 000 000 000 003 008 012 012 028 039 028 053 054 054 061 052 077 042 025 016 064
002 002 001 002 002 002 001 000 000 000 000 000 000 000 004 009 006 009 026 039 025 031 029 050 040 030 075 032 017 020 069
003 002 002 001 002 002 001 000 000 000 000 000 000 000 001 004 002 007 016 020 026 020 021 021 015 023 023 014 009 014 044
001 001 001 001 001 001 000 000 000 000 000 000 000 000 000 000 001 004 008 010 014 013 011 009 014 015 012 020 010 010 011
000 001 001 001 002 001 000 000 000 000 000 000 000 000 000 000 001 002 003 003 003 003 009 012 012 011 010 014 008 005 004
001 002 003 002 004 002 000 000 000 000 000 000 000 000 001 001 002 001 000 003 002 002 012 010 007 006 008 007 006 003 003
001 002 002 002 005 003 001 000 000 000 000 000 000 001 001 001 000 000 001 004 004 004 010 009 004 002 002 003 005 006 004
001 003 001 003 010 005 000 000 000 000 000 000 000 001 001 000 000 000 001 007 010 005 008 005 004 002 001 002 004 017 006
002 001 002 006 007 003 002 003 002 001 000 000 000 000 000 000 000 001 004 011 010 005 004 004 004 002 002 004 009 017 009
001 001 001 005 006 005 006 010 005 002 001 000 000 000 000 000 000 001 007 016 016 009 006 004 003 001 001 003 009 017 015
000 000 001 002 003 004 010 011 006 004 003 005 002 000 001 000 000 001 010 021 028 019 008 006 004 003 002 002 008 008 006
000 000 000 001 001 003 005 005 003 004 003 007 005 004 002 001 000 001 006 019 015 017 010 005 004 003 002 004 006 007 004
000 000 000 000 000 001 003 002 001 003 004 005 006 004 003 003 002 004 008 003 003 007 007 006 005 007 005 005 008 006 008
000 000 000 000 000 000 001 001 001 002 001 002 007 004 004 003 003 009 010 002 001 001 002 019 013 020 008 005 011 006 004
000 000 000 000 000 000 000 000 000 001 001 002 003 003 004 003 008 016 010 005 001 000 004 009 022 029 007 004 002 006 002
001 000 000 000 000 000 000 000 000 000 000 001 002 002 004 008 003 007 010 004 001 000 001 007 017 010 003 005 004 006 001
001 000 000 000 000 000 000 000 000 000 000 000 001 002 011 014 003 006 004 002 000 000 002 005 002 002 003 011 018 019 008
001 000 000 000 000 000 000 000 000 000 000 000 001 005 028 011 004 003 003 001 000 000 000 001 000 001 007 016 030 042 014
000 000 000 000 001 001 000 000 000 000 000 000 001 003 024 007 003 002 002 001 000 000 000 000 001 001 010 021 044 032 018
000 000 000 000 001 002 000 000 000 000 000 000 000 003 004 005 004 003 003 001 000 000 001 000 000 000 005 019 037 031 020
